!pbe0
!d4
!def2-tzvpp
!def2/j
!rijcosx
!sp
!tightscf

%output
    jsonpropfile true
    jsongbwfile true
end

%maxcore 1800
%pal
  nprocs 10
end

* xyz 0 1
B             1.9301404223625500             0.5863694912199900             0.5915065893355700
B             0.5793242258933901             1.0891259437110501             1.0906586793832400
B            -0.9802174520553100             0.7801610646355700             0.7775332497678800
B            -1.9296391527099399            -0.5862341781584099             0.5926134841018600
B            -0.5785821596626201            -1.0889947466144101             1.0913532520169900
B             0.9807098687364600            -0.7801128213042900             0.7766955471985900
B             1.9258811666007101            -0.5982734711129800            -0.5926826398086300
B             0.9848978367725900             0.7739524027853000            -0.7770270966171400
B            -0.5726682081071400             1.0922121579460400            -1.0913008797014800
B            -1.9264074536487601             0.5983419164957000            -0.5914476606960200
B            -0.9853338793088500            -0.7740875799652800            -0.7763801683822100
B             0.5718947851269101            -1.0924601796382800            -1.0915223565986700
*
