!pbe0
!d4
!def2-tzvpp
!def2/j
!rijcosx
!sp
!tightscf

%output
    jsonpropfile true
    jsongbwfile true
end

%maxcore 1800
%pal
  nprocs 10
end

* xyz 0 5
B             2.0661231065152799             0.6329915873365900             0.6371566524306300
B             0.4956824216654200             0.9355414265284300             0.9379622548449400
B            -1.1234926771391700             0.8082200366482600             0.8036116047116501
B            -2.0355312594148698            -0.5728155705083400             0.5799243340530300
B            -0.5241949485502700            -0.9289084912291800             0.9317970228879300
B             1.1238212602301800            -0.7633571087458900             0.7600933816386800
B             2.0614990008776100            -0.6456033992339500            -0.6386336155923100
B             1.1277183615025601             0.7565100805666300            -0.7605537933919800
B            -0.5192125804923600             0.9318815179214600            -0.9322368467266600
B            -2.0322634037726899             0.5857131991328900            -0.5785782445742400
B            -1.1292506259583399            -0.8011432103150000            -0.8030728592035200
B             0.4891013445366600            -0.9390300681018801            -0.9374698910781700
*
