!r2scan-3c
!opt
!tightscf

%output
    jsonpropfile true
    jsongbwfile true
end

%maxcore 1500
%pal
  nprocs 8
end

* xyz 0 1
B             1.3999999999999999             0.0000000000000000             1.1000000000000001
B             0.7000000000000000             1.2124360000000001             1.1000000000000001
B            -0.7000000000000000             1.2124360000000001             1.1000000000000001
B            -1.3999999999999999             0.0000000000000000             1.1000000000000001
B            -0.7000000000000000            -1.2124360000000001             1.1000000000000001
B             0.7000000000000000            -1.2124360000000001             1.1000000000000001
B             1.3999999999999999             0.0000000000000000            -1.1000000000000001
B             0.7000000000000000             1.2124360000000001            -1.1000000000000001
B            -0.7000000000000000             1.2124360000000001            -1.1000000000000001
B            -1.3999999999999999             0.0000000000000000            -1.1000000000000001
B            -0.7000000000000000            -1.2124360000000001            -1.1000000000000001
B             0.7000000000000000            -1.2124360000000001            -1.1000000000000001
*
