!pbe0
!d4
!def2-tzvpp
!def2/j
!rijcosx
!sp
!tightscf

%output
    jsonpropfile true
    jsongbwfile true
end

%maxcore 1800
%pal
  nprocs 10
end

* xyz 0 3
B             2.0140689424694500             0.5834746338146700             0.5889770958257600
B             0.6218066464409600             1.0763029278374401             1.0777901312859499
B            -0.9744794384773900             0.7954729621546900             0.7927803081602800
B            -2.0103850238208700            -0.5584437240089800             0.5652858213817700
B            -0.6054349424352100            -1.0298616803015599             1.0322778888342401
B             0.9564966590790300            -0.7130679354698400             0.7098243852396300
B             2.0100095984587498            -0.5959219600085101            -0.5903270520772600
B             0.9603451027822000             0.7070450386033000            -0.7103979410206800
B            -0.5996863443645000             1.0338395743554800            -1.0316903274148299
B            -2.0071734201151199             0.5707823789951200            -0.5640672119774000
B            -0.9800131256787900            -0.7896130657704400            -0.7921699008234900
B             0.6144453456615000            -1.0800091502013600            -1.0782831974139699
*
