!r2scan-3c
!tightopt
!tightscf

%output
    jsonpropfile true
    jsongbwfile true
end

%maxcore 1500
%pal
  nprocs 8
end

* xyz 0 1
B             1.9173942843800200             0.5855262577771499             0.5948788590046100
B             0.5726572558401500             1.0939074576827901             1.0874674091201599
B            -0.9896655021322200             0.7945342304137401             0.7848664278716700
B            -1.9184331233883900            -0.5764329881931500             0.5960179167189300
B            -0.5754716720166900            -1.0943516993369000             1.0727577079329200
B             0.9941114347859900            -0.7925490493823100             0.7810332550465000
B             1.9295053048266100            -0.5887625911516799            -0.5963814296616200
B             0.9930753636950500             0.7634066226757700            -0.7914767729049600
B            -0.5673333831830900             1.0872705817655099            -1.0751562330792199
B            -1.9298420888621100             0.5924677848714700            -0.5923860936347400
B            -0.9944676146304200            -0.7705837837538900            -0.7869570559327800
B             0.5684697406851100            -1.0944328233684899            -1.0746639904814701
*
