!r2scan-3c
!tightopt
!tightscf

%output
    jsonpropfile true
    jsongbwfile true
end

%maxcore 1500
%pal
  nprocs 8
end

* xyz 0 1
B             1.9301996024580399             0.5863756100549200             0.5914869941246500
B             0.5793009173024000             1.0891256384135299             1.0906522757569499
B            -0.9802515399658500             0.7802218754564600             0.7776110567997300
B            -1.9296762559171501            -0.5862157376614801             0.5925268712397200
B            -0.5785159118419100            -1.0889884976686901             1.0913572253643000
B             0.9807590209072700            -0.7801643868435000             0.7767253987831100
B             1.9258864733159200            -0.5983167664020400            -0.5926512068307001
B             0.9848940629915101             0.7739519743266600            -0.7770073049671500
B            -0.5727248782637900             1.0921657197385599            -1.0913361649405000
B            -1.9264768994946000             0.5984055665238700            -0.5914298300749600
B            -0.9853007682228200            -0.7741334981562100            -0.7763883161752800
B             0.5719061767309900            -1.0924274977820601            -1.0915469990798801
*
